# Solution for model Path_planning
# Objective value = 4.9942357314503569e+00
U_0 0
ux_0 0
uy_0 0
uz_0 0
Vx_0 8.9249999888241227e-02
Vy_0 -1.0330000000558792e+00
Vz_0 4.5874999979510905e-01
Px_0 8.913
Py_0 14.642
Pz_0 0.41
U_1 0
ux_1 0
uy_1 0
uz_1 0
Vx_1 8.9249999888241227e-02
Vy_1 -1.0330000000558792e+00
Vz_1 4.5874999979510905e-01
Px_1 9.0914999997764827e+00
Py_1 1.2575999999888241e+01
Pz_1 1.3274999995902181e+00
U_2 1.8462705877460500e-01
ux_2 -6.9723324775103734e-02
uy_2 -3.5947684186128370e-02
uz_2 -1.8462705877460500e-01
Vx_2 8.9249999888241227e-02
Vy_2 -1.0330000000558792e+00
Vz_2 4.5874999979510905e-01
Px_2 9.2699999995529652e+00
Py_2 1.0509999999776483e+01
Pz_2 2.2449999991804361e+00
U_3 4.0683381937631276e-02
ux_3 2.7884149689905699e-02
uy_3 1.6851608561771484e-02
uz_3 -4.0683381937631276e-02
Vx_3 -5.0196649661966228e-02
Vy_3 -1.1048953684281371e+00
Vz_3 8.9495882245899050e-02
Px_3 9.3090533497792407e+00
Py_3 8.3721046312924674e+00
Pz_3 2.7932458812214440e+00
U_4 4.0645591853182526e-03
ux_4 -2.7858248589225846e-03
uy_4 1.6835955396269585e-03
uz_4 -4.0645591853182526e-03
Vx_4 5.5716497178451693e-03
Vy_4 -1.0711921513045941e+00
Vz_4 8.1291183706365053e-03
Px_4 9.2644283498351196e+00
Py_4 6.1960171115597369e+00
Pz_4 2.8908708818379800e+00
U_5 6.0124367145710045e-01
ux_5 -3.4676466630253772e-01
uy_5 5.0389060011662301e-01
uz_5 -5.1124999998137355e-02
Vx_5 0
Vy_5 -1.0678249602253398e+00
Vz_5 0
Px_5 9.2699999995529652e+00
Py_5 4.0570000000298023e+00
Pz_5 2.8990000002086163e+00
U_6 0
ux_6 0
uy_6 0
uz_6 0
Vx_6 -6.9352933260507543e-01
Vy_6 -6.0043759992093847e-02
Vz_6 -1.0224999999627471e-01
Px_6 8.5764706669478894e+00
Py_6 2.9291312798123688e+00
Pz_6 2.7967500002123415e+00
U_7 5.9226059453813158e-02
ux_7 -2.1176668375552966e-02
uy_7 3.0021879996046996e-02
uz_7 5.1124999998137355e-02
Vx_7 -6.9352933260507543e-01
Vy_7 -6.0043759992093992e-02
Vz_7 -1.0224999999627471e-01
Px_7 7.1894120017377388e+00
Py_7 2.8090437598281812e+00
Pz_7 2.5922500002197921e+00
U_8 2.9246257255022340e-01
ux_8 7.4301668468685189e-02
uy_8 2.9137589749611736e-01
uz_8 -3.1750000081956387e-02
Vx_8 -7.3588266935618130e-01
Vy_8 0
Vz_8 0
Px_8 5.7599999997764826e+00
Py_8 2.7489999998360872e+00
Pz_8 2.4900000002235174e+00
U_9 0
ux_9 0
uy_9 0
uz_9 0
Vx_9 -5.8727933241881092e-01
Vy_9 5.8275179499223473e-01
Vz_9 -6.3500000163912773e-02
Px_9 4.4368379980014900e+00
Py_9 3.3317517948283220e+00
Pz_9 2.4265000000596046e+00
U_10 3.4528724476304240e-01
ux_10 2.9363966620940540e-01
uy_10 2.1012051288449263e-01
uz_10 3.1750000081956387e-02
Vx_10 -5.8727933241881081e-01
Vy_10 5.8275179499223384e-01
Vz_10 -6.3500000163912773e-02
Px_10 3.2622793331638689e+00
Py_10 4.4972553848127914e+00
Pz_10 2.2994999997317791e+00
U_11 2.3234291802104779e-02
ux_11 1.3999999966472387e-02
uy_11 1.7358250599159693e-02
uz_11 1.5499999979510903e-02
Vx_11 0
Vy_11 1.0029928207612191e+00
Vz_11 0
Px_11 2.6750000007450581e+00
Py_11 6.0830000005662441e+00
Pz_11 2.2359999995678663e+00
U_12 0
ux_12 0
uy_12 0
uz_12 0
Vx_12 2.7999999932944775e-02
Vy_12 1.0377093219595386e+00
Vz_12 3.0999999959021807e-02
Px_12 2.7030000006780028e+00
Py_12 8.1237021432870016e+00
Pz_12 2.2669999995268881e+00
U_13 1.7851198301545732e-02
ux_13 -1.3999999966472387e-02
uy_13 -7.7697157562928781e-03
uz_13 -1.5499999979510903e-02
Vx_13 2.7999999932944775e-02
Vy_13 1.0377093219595386e+00
Vz_13 3.0999999959021807e-02
Px_13 2.7590000005438924e+00
Py_13 1.0199120787206079e+01
Pz_13 2.3289999994449317e+00
U_14 7.2744357086138067e-01
ux_14 4.5218749996274726e-01
uy_14 -5.5310618156007951e-01
uz_14 -1.5775000001303852e-01
Vx_14 0
Vy_14 1.0221698904469534e+00
Vz_14 0
Px_14 2.7870000004768372e+00
Py_14 1.2258999999612570e+01
Pz_14 2.3599999994039536e+00
U_15 0
ux_15 0
uy_15 0
uz_15 0
Vx_15 9.0437499992549453e-01
Vy_15 -8.4042472673205637e-02
Vz_15 -3.1550000002607703e-01
Px_15 3.6913750004023318e+00
Py_15 1.3197127417386318e+01
Pz_15 2.0444999993778765e+00
U_16 4.7271075580774280e-01
ux_16 -4.5218749996274665e-01
uy_16 -1.3922876357026492e-01
uz_16 1.5775000001303852e-01
Vx_16 9.0437499992549331e-01
Vy_16 -8.4042472673205637e-02
Vz_16 -3.1550000002607703e-01
Px_16 5.5001250002533206e+00
Py_16 1.3029042472039906e+01
Pz_16 1.4134999993257225e+00
U_17 0
ux_17 0
uy_17 0
uz_17 0
Vx_17 0
Vy_17 -3.6249999981373549e-01
Vz_17 0
Px_17 6.4045000001788139e+00
Py_17 1.2582499999552965e+01
Pz_17 1.0979999992996454e+00
U_18 3.5329232826825979e-01
ux_18 -3.4945000000298021e-01
uy_18 -6.8250000104308178e-02
uz_18 5.2700000070035460e-02
Vx_18 0
Vy_18 -3.6249999981373549e-01
Vz_18 0
Px_18 6.4045000001788139e+00
Py_18 1.1857499999925494e+01
Pz_18 1.0979999992996454e+00
U_19 0
ux_19 0
uy_19 0
uz_19 0
Vx_19 -6.9890000000596042e-01
Vy_19 -4.9900000002235184e-01
Vz_19 1.0540000014007092e-01
Px_19 5.7056000001728533e+00
Py_19 1.0996000000089406e+01
Pz_19 1.2033999994397164e+00
U_20 0
ux_20 0
uy_20 0
uz_20 0
Vx_20 -6.9890000000596042e-01
Vy_20 -4.9900000002235156e-01
Vz_20 1.0540000014007089e-01
Px_20 4.3078000001609329e+00
Py_20 9.9980000000447031e+00
Pz_20 1.4141999997198582e+00
U_21 7.1364788186358930e-01
ux_21 7.2455786683780410e-01
uy_21 9.5437500043771967e-02
uz_21 5.6249997578563041e-04
Vx_21 -6.9890000000596042e-01
Vy_21 -4.9900000002235156e-01
Vz_21 1.0540000014007089e-01
Px_21 2.9100000001490116e+00
Py_21 9
Pz_21 1.625
U_22 0
ux_22 0
uy_22 0
uz_22 0
Vx_22 7.5021573366964778e-01
Vy_22 -3.0812499993480752e-01
Vz_22 1.0652500009164216e-01
Px_22 2.9613157338126990e+00
Py_22 8.1928750000428412e+00
Pz_22 1.8369250002317130e+00
U_23 1.6097088048728375e-01
ux_23 -2.6089334171138900e-02
uy_23 1.5406249996740362e-01
uz_23 -5.3262500045821115e-02
Vx_23 7.5021573366964778e-01
Vy_23 -3.0812499993480724e-01
Vz_23 1.0652500009164223e-01
Px_23 4.4617472011519945e+00
Py_23 7.5766250001732258e+00
Pz_23 2.0499750004149973e+00
U_24 7.5899304575376969e-02
ux_24 -5.5324771933491133e-02
uy_24 3.5839904820948398e-02
uz_24 -7.1497921084236027e-02
Vx_24 6.9803706532736998e-01
Vy_24 0
Vz_24 0
Px_24 5.9100000001490116e+00
Py_24 7.2685000002384186e+00
Pz_24 2.1565000005066395e+00
U_25 4.0837172119189347e-01
ux_25 -1.8509981492877234e-01
uy_25 3.9248028553715480e-01
uz_25 -3.5506236747291933e-02
Vx_25 5.8738752146038775e-01
Vy_25 7.1679809641896797e-02
Vz_25 -1.4299584216847205e-01
Px_25 7.1954245869367686e+00
Py_25 7.3401798098803157e+00
Pz_25 2.0135041583381676e+00
U_26 5.3480948505342074e-02
ux_26 -5.0609603381595994e-02
uy_26 3.1418111306000744e-02
uz_26 2.0963184106980295e-02
Vx_26 2.1718789160284308e-01
Vy_26 8.5664038071620641e-01
Vz_26 -2.1400831566305592e-01
Px_26 8
Py_26 8.2685000002384186e+00
Pz_26 1.6565000005066395e+00
U_27 0
ux_27 0
uy_27 0
uz_27 0
Vx_27 1.1596868483965107e-01
Vy_27 9.1947660332820791e-01
Vz_27 -1.7208194744909533e-01
Px_27 8.3331565764424944e+00
Py_27 1.0044616984282833e+01
Pz_27 1.2704097373944883e+00
U_28 0
ux_28 0
uy_28 0
uz_28 0
Vx_28 1.1596868483965099e-01
Vy_28 9.1947660332820769e-01
Vz_28 -1.7208194744909533e-01
Px_28 8.5650939461217970e+00
Py_28 1.1883570190939249e+01
Pz_28 9.2624584249629760e-01
U_29 4.5973830166410412e-01
ux_29 -5.7984342419825197e-02
uy_29 -4.5973830166410412e-01
uz_29 8.6040973724547665e-02
Vx_29 1.1596868483965039e-01
Vy_29 9.1947660332820824e-01
Vz_29 -1.7208194744909533e-01
Px_29 8.7970313158010995e+00
Py_29 1.3722523397595664e+01
Pz_29 5.8208194759810694e-01
U_30 0
ux_30 0
uy_30 0
uz_30 0
Vx_30 0
Vy_30 0
Vz_30 0
Px_30 8.9130000006407499e+00
Py_30 1.4642000000923872e+01
Pz_30 4.1000000014901161e-01
b_0_0 0
b_0_1 0
b_0_2 0
b_0_3 0
b_0_4 0
b_0_5 0
b_0_6 0
b_0_7 0
b_0_8 0
b_0_9 0
b_0_10 0
b_0_11 0
b_0_12 0
b_0_13 0
b_0_14 0
b_0_15 0
b_0_16 0
b_0_17 0
b_0_18 0
b_0_19 0
b_0_20 0
b_0_21 0
b_0_22 0
b_0_23 0
b_0_24 0
b_0_25 0
b_0_26 0
b_0_27 0
b_0_28 0
b_0_29 0
b_0_30 0
b_1_0 0
b_1_1 0
b_1_2 1
b_1_3 0
b_1_4 0
b_1_5 0
b_1_6 0
b_1_7 0
b_1_8 0
b_1_9 0
b_1_10 0
b_1_11 0
b_1_12 0
b_1_13 0
b_1_14 0
b_1_15 0
b_1_16 0
b_1_17 0
b_1_18 0
b_1_19 0
b_1_20 0
b_1_21 0
b_1_22 0
b_1_23 0
b_1_24 0
b_1_25 0
b_1_26 0
b_1_27 0
b_1_28 0
b_1_29 0
b_1_30 0
b_2_0 0
b_2_1 0
b_2_2 0
b_2_3 0
b_2_4 0
b_2_5 1
b_2_6 0
b_2_7 0
b_2_8 0
b_2_9 0
b_2_10 0
b_2_11 0
b_2_12 0
b_2_13 0
b_2_14 0
b_2_15 0
b_2_16 0
b_2_17 0
b_2_18 0
b_2_19 0
b_2_20 0
b_2_21 0
b_2_22 0
b_2_23 0
b_2_24 0
b_2_25 0
b_2_26 0
b_2_27 0
b_2_28 0
b_2_29 0
b_2_30 0
b_3_0 0
b_3_1 0
b_3_2 0
b_3_3 0
b_3_4 0
b_3_5 0
b_3_6 0
b_3_7 0
b_3_8 1
b_3_9 0
b_3_10 0
b_3_11 0
b_3_12 0
b_3_13 0
b_3_14 0
b_3_15 0
b_3_16 0
b_3_17 0
b_3_18 0
b_3_19 0
b_3_20 0
b_3_21 0
b_3_22 0
b_3_23 0
b_3_24 0
b_3_25 0
b_3_26 0
b_3_27 0
b_3_28 0
b_3_29 0
b_3_30 0
b_4_0 0
b_4_1 0
b_4_2 0
b_4_3 0
b_4_4 0
b_4_5 0
b_4_6 0
b_4_7 0
b_4_8 0
b_4_9 0
b_4_10 0
b_4_11 1
b_4_12 0
b_4_13 0
b_4_14 0
b_4_15 0
b_4_16 0
b_4_17 0
b_4_18 0
b_4_19 0
b_4_20 0
b_4_21 0
b_4_22 0
b_4_23 0
b_4_24 0
b_4_25 0
b_4_26 0
b_4_27 0
b_4_28 0
b_4_29 0
b_4_30 0
b_5_0 0
b_5_1 0
b_5_2 0
b_5_3 0
b_5_4 0
b_5_5 0
b_5_6 0
b_5_7 0
b_5_8 0
b_5_9 0
b_5_10 0
b_5_11 0
b_5_12 0
b_5_13 0
b_5_14 1
b_5_15 0
b_5_16 0
b_5_17 0
b_5_18 0
b_5_19 0
b_5_20 0
b_5_21 0
b_5_22 0
b_5_23 0
b_5_24 0
b_5_25 0
b_5_26 0
b_5_27 0
b_5_28 0
b_5_29 0
b_5_30 0
b_6_0 0
b_6_1 0
b_6_2 0
b_6_3 0
b_6_4 0
b_6_5 0
b_6_6 0
b_6_7 0
b_6_8 0
b_6_9 0
b_6_10 0
b_6_11 0
b_6_12 0
b_6_13 0
b_6_14 0
b_6_15 0
b_6_16 0
b_6_17 1
b_6_18 0
b_6_19 0
b_6_20 0
b_6_21 0
b_6_22 0
b_6_23 0
b_6_24 0
b_6_25 0
b_6_26 0
b_6_27 0
b_6_28 0
b_6_29 0
b_6_30 0
b_7_0 0
b_7_1 0
b_7_2 0
b_7_3 0
b_7_4 0
b_7_5 0
b_7_6 0
b_7_7 0
b_7_8 0
b_7_9 0
b_7_10 0
b_7_11 0
b_7_12 0
b_7_13 0
b_7_14 0
b_7_15 0
b_7_16 0
b_7_17 0
b_7_18 1
b_7_19 0
b_7_20 0
b_7_21 0
b_7_22 0
b_7_23 0
b_7_24 0
b_7_25 0
b_7_26 0
b_7_27 0
b_7_28 0
b_7_29 0
b_7_30 0
b_8_0 0
b_8_1 0
b_8_2 0
b_8_3 0
b_8_4 0
b_8_5 0
b_8_6 0
b_8_7 0
b_8_8 0
b_8_9 0
b_8_10 0
b_8_11 0
b_8_12 0
b_8_13 0
b_8_14 0
b_8_15 0
b_8_16 0
b_8_17 0
b_8_18 0
b_8_19 0
b_8_20 0
b_8_21 1
b_8_22 0
b_8_23 0
b_8_24 0
b_8_25 0
b_8_26 0
b_8_27 0
b_8_28 0
b_8_29 0
b_8_30 0
b_9_0 0
b_9_1 0
b_9_2 0
b_9_3 0
b_9_4 0
b_9_5 0
b_9_6 0
b_9_7 0
b_9_8 0
b_9_9 0
b_9_10 0
b_9_11 0
b_9_12 0
b_9_13 0
b_9_14 0
b_9_15 0
b_9_16 0
b_9_17 0
b_9_18 0
b_9_19 0
b_9_20 0
b_9_21 0
b_9_22 0
b_9_23 0
b_9_24 1
b_9_25 0
b_9_26 0
b_9_27 0
b_9_28 0
b_9_29 0
b_9_30 0
b_10_0 0
b_10_1 0
b_10_2 0
b_10_3 0
b_10_4 0
b_10_5 0
b_10_6 0
b_10_7 0
b_10_8 0
b_10_9 0
b_10_10 0
b_10_11 0
b_10_12 0
b_10_13 0
b_10_14 0
b_10_15 0
b_10_16 0
b_10_17 0
b_10_18 0
b_10_19 0
b_10_20 0
b_10_21 0
b_10_22 0
b_10_23 0
b_10_24 0
b_10_25 0
b_10_26 1
b_10_27 0
b_10_28 0
b_10_29 0
b_10_30 0
b_11_0 0
b_11_1 0
b_11_2 0
b_11_3 0
b_11_4 0
b_11_5 0
b_11_6 0
b_11_7 0
b_11_8 0
b_11_9 0
b_11_10 0
b_11_11 0
b_11_12 0
b_11_13 0
b_11_14 0
b_11_15 0
b_11_16 0
b_11_17 0
b_11_18 0
b_11_19 0
b_11_20 0
b_11_21 0
b_11_22 0
b_11_23 0
b_11_24 0
b_11_25 0
b_11_26 0
b_11_27 0
b_11_28 0
b_11_29 0
b_11_30 1
Tsim 60
